n=40;
t=50;
profit=[6 3 9 9 10 10 10 4 8 9 1 6 1 5 4 2 2 5 2 3 4 10 7 7 1 9 7 6 5 10 5 5 3 9 3 7 8 2 8 2];
length=[1 1 5 1 5 5 2 2 4 5 3 2 2 1 3 2 3 1 4 2 5 2 1 4 2 5 4 2 5 4 1 3 3 1 2 5 1 1 3 4];
min_deliver=[17 8 34 20 48 14 45 27 5 17 11 30 47 11 11 6 8 45 11 39 18 44 6 30 3 40 39 2 26 46 25 14 48 44 30 19 41 14 3 11];
max_deliver=[21 13 37 21 50 19 49 32 5 21 16 35 47 15 12 6 10 50 15 41 19 45 10 33 6 41 44 4 27 48 28 14 50 44 30 21 42 19 4 11];
surface=[4 2 2 4 1 2 4 2 3 4 5 2 4 3 4 4 5 2 5 1 1 4 2 3 1 4 5 2 4 3 5 2 2 5 1 5 3 4 4 2];
surface_capacity=21;
